p wcnf 24 237 7
1 1 4 7 10 13 16 19 22 0
2 2 5 8 11 14 17 20 23 0
3 3 6 9 12 15 18 21 24 0
7 -1 -5 0
7 -1 -6 0
7 -2 -4 0
7 -2 -6 0
7 -3 -4 0
7 -3 -5 0
7 -1 -8 0
7 -1 -9 0
7 -2 -7 0
7 -2 -9 0
7 -3 -7 0
7 -3 -8 0
7 -1 -14 0
7 -1 -15 0
7 -2 -13 0
7 -2 -15 0
7 -3 -13 0
7 -3 -14 0
7 -1 -17 0
7 -1 -18 0
7 -2 -16 0
7 -2 -18 0
7 -3 -16 0
7 -3 -17 0
7 -1 -23 0
7 -1 -24 0
7 -2 -22 0
7 -2 -24 0
7 -3 -22 0
7 -3 -23 0
7 -4 -8 0
7 -4 -9 0
7 -5 -7 0
7 -5 -9 0
7 -6 -7 0
7 -6 -8 0
7 -4 -11 0
7 -4 -12 0
7 -5 -10 0
7 -5 -12 0
7 -6 -10 0
7 -6 -11 0
7 -4 -14 0
7 -4 -15 0
7 -5 -13 0
7 -5 -15 0
7 -6 -13 0
7 -6 -14 0
7 -4 -17 0
7 -4 -18 0
7 -5 -16 0
7 -5 -18 0
7 -6 -16 0
7 -6 -17 0
7 -4 -20 0
7 -4 -21 0
7 -5 -19 0
7 -5 -21 0
7 -6 -19 0
7 -6 -20 0
7 -4 -23 0
7 -4 -24 0
7 -5 -22 0
7 -5 -24 0
7 -6 -22 0
7 -6 -23 0
7 -7 -11 0
7 -7 -12 0
7 -8 -10 0
7 -8 -12 0
7 -9 -10 0
7 -9 -11 0
7 -7 -14 0
7 -7 -15 0
7 -8 -13 0
7 -8 -15 0
7 -9 -13 0
7 -9 -14 0
7 -7 -23 0
7 -7 -24 0
7 -8 -22 0
7 -8 -24 0
7 -9 -22 0
7 -9 -23 0
7 -10 -14 0
7 -10 -15 0
7 -11 -13 0
7 -11 -15 0
7 -12 -13 0
7 -12 -14 0
7 -10 -20 0
7 -10 -21 0
7 -11 -19 0
7 -11 -21 0
7 -12 -19 0
7 -12 -20 0
7 -10 -23 0
7 -10 -24 0
7 -11 -22 0
7 -11 -24 0
7 -12 -22 0
7 -12 -23 0
7 -13 -20 0
7 -13 -21 0
7 -14 -19 0
7 -14 -21 0
7 -15 -19 0
7 -15 -20 0
7 -13 -23 0
7 -13 -24 0
7 -14 -22 0
7 -14 -24 0
7 -15 -22 0
7 -15 -23 0
7 -16 -20 0
7 -16 -21 0
7 -17 -19 0
7 -17 -21 0
7 -18 -19 0
7 -18 -20 0
7 -19 -23 0
7 -19 -24 0
7 -20 -22 0
7 -20 -24 0
7 -21 -22 0
7 -21 -23 0
7 -1 -4 0
7 -1 -7 0
7 -1 -10 0
7 -1 -13 0
7 -1 -16 0
7 -1 -19 0
7 -1 -22 0
7 -2 -5 0
7 -2 -8 0
7 -2 -11 0
7 -2 -14 0
7 -2 -17 0
7 -2 -20 0
7 -2 -23 0
7 -3 -6 0
7 -3 -9 0
7 -3 -12 0
7 -3 -15 0
7 -3 -18 0
7 -3 -21 0
7 -3 -24 0
7 -4 -7 0
7 -4 -10 0
7 -4 -13 0
7 -4 -16 0
7 -4 -19 0
7 -4 -22 0
7 -5 -8 0
7 -5 -11 0
7 -5 -14 0
7 -5 -17 0
7 -5 -20 0
7 -5 -23 0
7 -6 -9 0
7 -6 -12 0
7 -6 -15 0
7 -6 -18 0
7 -6 -21 0
7 -6 -24 0
7 -7 -10 0
7 -7 -13 0
7 -7 -16 0
7 -7 -19 0
7 -7 -22 0
7 -8 -11 0
7 -8 -14 0
7 -8 -17 0
7 -8 -20 0
7 -8 -23 0
7 -9 -12 0
7 -9 -15 0
7 -9 -18 0
7 -9 -21 0
7 -9 -24 0
7 -10 -13 0
7 -10 -16 0
7 -10 -19 0
7 -10 -22 0
7 -11 -14 0
7 -11 -17 0
7 -11 -20 0
7 -11 -23 0
7 -12 -15 0
7 -12 -18 0
7 -12 -21 0
7 -12 -24 0
7 -13 -16 0
7 -13 -19 0
7 -13 -22 0
7 -14 -17 0
7 -14 -20 0
7 -14 -23 0
7 -15 -18 0
7 -15 -21 0
7 -15 -24 0
7 -16 -19 0
7 -16 -22 0
7 -17 -20 0
7 -17 -23 0
7 -18 -21 0
7 -18 -24 0
7 -19 -22 0
7 -20 -23 0
7 -21 -24 0
7 -1 -2 0
7 -1 -3 0
7 -2 -3 0
7 -4 -5 0
7 -4 -6 0
7 -5 -6 0
7 -7 -8 0
7 -7 -9 0
7 -8 -9 0
7 -10 -11 0
7 -10 -12 0
7 -11 -12 0
7 -13 -14 0
7 -13 -15 0
7 -14 -15 0
7 -16 -17 0
7 -16 -18 0
7 -17 -18 0
7 -19 -20 0
7 -19 -21 0
7 -20 -21 0
7 -22 -23 0
7 -22 -24 0
7 -23 -24 0
